62      4       
36      23      17      19      
0       0       0       0       0       3       2       3       4       
1       8       0       0       0       3       6       7       8       
4       0       5       0       0       3       16      34      44      
8       0       0       0       4       3       5       31      35      
2       5       0       0       0       1       32      
1       0       3       0       0       3       9       10      14      
1       0       0       5       0       2       36      38      
9       0       0       0       1       1       42      
8       0       0       0       8       2       11      35      
8       10      0       0       0       3       12      17      50      
1       0       0       9       0       3       13      19      21      
8       0       0       0       5       2       15      54      
2       0       2       0       0       3       16      20      27      
6       0       0       7       0       3       18      26      46      
9       2       0       0       0       1       36      
4       8       0       0       0       2       23      30      
2       3       0       0       0       2       31      46      
1       0       0       0       10      3       24      25      51      
4       0       0       10      0       3       31      43      46      
3       9       0       0       0       3       29      49      51      
4       4       0       0       0       2       22      38      
2       10      0       0       0       1       33      
5       0       1       0       0       3       47      50      54      
6       7       0       0       0       1       36      
2       5       0       0       0       2       27      37      
5       0       7       0       0       2       28      37      
1       0       0       1       0       2       45      58      
10      0       0       0       2       3       35      41      42      
10      0       0       0       7       1       33      
4       0       0       0       3       1       49      
6       0       0       6       0       1       39      
10      4       0       0       0       3       44      45      55      
9       0       5       0       0       1       39      
8       0       0       7       0       1       43      
10      3       0       0       0       1       50      
6       0       0       0       9       2       41      57      
1       0       1       0       0       1       48      
10      0       10      0       0       1       49      
5       7       0       0       0       3       40      41      45      
8       2       0       0       0       1       42      
3       0       0       0       5       3       48      59      61      
8       0       0       0       1       2       44      47      
8       0       0       7       0       3       51      53      55      
5       0       6       0       0       1       52      
8       0       10      0       0       2       48      59      
10      5       0       0       0       1       54      
5       0       8       0       0       1       53      
9       6       0       0       0       1       60      
9       9       0       0       0       2       52      60      
4       0       0       9       0       2       52      56      
2       0       0       6       0       1       60      
4       0       0       0       2       1       57      
9       3       0       0       0       2       56      59      
9       0       10      0       0       1       58      
5       0       0       6       0       1       56      
8       10      0       0       0       1       57      
10      3       0       0       0       1       58      
8       0       0       4       0       1       61      
2       0       0       0       1       1       62      
7       0       9       0       0       1       62      
1       3       0       0       0       1       62      
0       0       0       0       0       0       